c User generated cnf file
p cnf 15 45
2 12 -10 0 
4 -4 12 0 
14 -7 6 0 
13 7 -9 0 
-3 4 7 0 
10 13 -1 0 
6 -6 13 0 
13 -15 10 0 
-7 6 15 0 
11 -10 13 0 
1 -10 13 0 
3 3 -1 0 
-13 1 13 0 
-14 11 8 0 
14 -1 2 0 
13 -12 5 0 
11 14 -9 0 
10 15 -12 0 
10 15 -12 0 
13 13 -2 0 
14 -4 10 0 
8 -9 11 0 
-14 5 11 0 
-11 12 9 0 
-1 5 9 0 
13 4 -7 0 
10 -14 8 0 
7 4 -3 0 
-3 2 5 0 
13 -15 8 0 
-11 8 3 0 
3 -9 3 0 
8 -14 5 0 
12 -11 11 0 
-1 13 10 0 
12 -1 7 0 
1 1 -4 0 
7 14 -8 0 
-14 12 6 0 
13 7 -15 0 
10 14 -12 0 
-1 5 3 0 
3 -15 11 0 
-15 5 13 0 
8 -13 15 0 
